NAME : instances/clustered-mixed-tsp/instance-86.tsp
COMMENT : No Comment
TYPE : TSP
DIMENSION: 40
EDGE_WEIGHT_TYPE : EUC_2D
NODE_COORD_SECTION
1 950 212 
2 277 884 
3 1006 208 
4 803 -32 
5 341 -62 
6 838 1054 
7 61 237 
8 -196 250 
9 506 304 
10 50 232 
11 307 555 
12 718 726 
13 1055 513 
14 338 343 
15 49 -45 
16 875 817 
17 803 54 
18 731 402 
19 109 708 
20 740 497 
21 638 55 
22 403 186 
23 569 352 
24 683 469 
25 730 -185 
26 638 68 
27 392 762 
28 413 255 
29 1028 526 
30 794 -24 
31 -2 498 
32 91 201 
33 254 -50 
34 436 885 
35 181 189 
36 35 -14 
37 920 760 
38 160 330 
39 290 -59 
40 220 -72 
EOF
